  Job Started  at 22:26.04 27th April      2013

  Number of CPUs =     1

  Total number of configurations input =   1

*  Input for Configuration =   1                                               *

  Formula = Si3O6

  Number of irreducible atoms/shells =       9

  Total number atoms/shells =       9

  Dimensionality = 3               :  Bulk

  Cartesian lattice vectors (Angstroms) :

        4.916000    0.000000    0.000000
        0.000000    4.257200    0.000000
        0.000000    0.000000    5.405400

  Cell parameters (Angstroms/Degrees):

  a =       4.9160    alpha =  90.0000
  b =       4.2572    beta  =  90.0000
  c =       5.4054    gamma =  90.0000

  Initial cell volume =         113.126347 Angs**3

  Temperature of configuration =  0.000     K

  Pressure of configuration =         0.000 GPa

  Fractional coordinates of asymmetric unit :

   No.  Atomic       x           y          z         Charge      Occupancy
        Label      (Frac)      (Frac)     (Frac)        (e)         (Frac)
      1 Si    c    0.469900    0.000000    0.666667     2.40000    1.000000
      2 Si    c    0.000000    0.469900    0.333333     2.40000    1.000000
      3 Si    c    0.530100    0.530100    0.000000     2.40000    1.000000
      4 O     c    0.414100    0.268100    0.785400    -1.20000    1.000000
      5 O     c    0.731900    0.146000    0.452067    -1.20000    1.000000
      6 O     c    0.853900    0.585900    0.118733    -1.20000    1.000000
      7 O     c    0.268100    0.414100    0.214600    -1.20000    1.000000
      8 O     c    0.585900    0.854000    0.881278    -1.20000    1.000000
      9 O     c    0.146000    0.731900    0.547933    -1.20000    1.000000

  Brillouin zone sampling points :

  Point number          x          y          z            Weight
        1           0.000000   0.000000   0.000000         0.0333
        2           0.017241   0.000000   0.000000         0.0333
        3           0.034483   0.000000   0.000000         0.0333
        4           0.051724   0.000000   0.000000         0.0333
        5           0.068966   0.000000   0.000000         0.0333
        6           0.086207   0.000000   0.000000         0.0333
        7           0.103448   0.000000   0.000000         0.0333
        8           0.120690   0.000000   0.000000         0.0333
        9           0.137931   0.000000   0.000000         0.0333
       10           0.155172   0.000000   0.000000         0.0333
       11           0.172414   0.000000   0.000000         0.0333
       12           0.189655   0.000000   0.000000         0.0333
       13           0.206897   0.000000   0.000000         0.0333
       14           0.224138   0.000000   0.000000         0.0333
       15           0.241379   0.000000   0.000000         0.0333
       16           0.258621   0.000000   0.000000         0.0333
       17           0.275862   0.000000   0.000000         0.0333
       18           0.293103   0.000000   0.000000         0.0333
       19           0.310345   0.000000   0.000000         0.0333
       20           0.327586   0.000000   0.000000         0.0333
       21           0.344828   0.000000   0.000000         0.0333
       22           0.362069   0.000000   0.000000         0.0333
       23           0.379310   0.000000   0.000000         0.0333
       24           0.396552   0.000000   0.000000         0.0333
       25           0.413793   0.000000   0.000000         0.0333
       26           0.431034   0.000000   0.000000         0.0333
       27           0.448276   0.000000   0.000000         0.0333
       28           0.465517   0.000000   0.000000         0.0333
       29           0.482759   0.000000   0.000000         0.0333
       30           0.500000   0.000000   0.000000         0.0333

*  General input information                                                   *

  Species output for all configurations :

  Species    Type    Atomic    Atomic    Charge       Radii (Angs)     Library
                     Number     Mass       (e)     Cova   Ionic  VDW   Symbol
    Si       Core       14      28.09   2.400000   1.200  0.000  2.100
    O        Core        8      16.00  -1.200000   0.730  0.000  1.360

  Lattice summation method = Wolf et al

  Modified method - smoothed energy only / correct forces

  Eta    =     0.223000 Angstrom**-1
  Cutoff =    10.000000 Angstrom

  Time limit = Infinity

  Maximum range for interatomic potentials =    100000.000000 Angstroms

  General interatomic potentials :

Atom  Types   Potential         A         B         C         D     Cutoffs(Ang)
  1     2                                                            Min    Max
Si   c Si   c Buckingham    0.872E+09  15.2      23.3      0.00     0.000 10.000
O    c O    c Buckingham     420.      2.85      215.      0.00     0.000 10.000
O    c Si   c Buckingham    0.256E+04  4.80      70.7      0.00     0.000 10.000

*  Output for configuration   1                                                *

  Components of energy :

  Interatomic potentials     = 88301226719.69125366 eV
  Monopole - monopole (real) =        -119.23473283 eV
  Monopole - monopole (recip)=           0.00000000 eV
  Monopole - monopole (total)=        -119.23473283 eV
  Wolf sum self energy       =         -46.98922585 eV
  Total lattice energy       = 88301226553.46730042 eV
  Total lattice energy       =   8519718554540.0078 kJ/(mole unit cells)

  Born effective charge tensors :

  Atom             x           y             z
   1 Si    x       2.4000      0.0000      0.0000
           y       0.0000      2.4000      0.0000
           z       0.0000      0.0000      2.4000
   2 Si    x       2.4000      0.0000      0.0000
           y       0.0000      2.4000      0.0000
           z       0.0000      0.0000      2.4000
   3 Si    x       2.4000      0.0000      0.0000
           y       0.0000      2.4000      0.0000
           z       0.0000      0.0000      2.4000
   4 O     x      -1.2000      0.0000      0.0000
           y       0.0000     -1.2000      0.0000
           z       0.0000      0.0000     -1.2000
   5 O     x      -1.2000      0.0000      0.0000
           y       0.0000     -1.2000      0.0000
           z       0.0000      0.0000     -1.2000
   6 O     x      -1.2000      0.0000      0.0000
           y       0.0000     -1.2000      0.0000
           z       0.0000      0.0000     -1.2000
   7 O     x      -1.2000      0.0000      0.0000
           y       0.0000     -1.2000      0.0000
           z       0.0000      0.0000     -1.2000
   8 O     x      -1.2000      0.0000      0.0000
           y       0.0000     -1.2000      0.0000
           z       0.0000      0.0000     -1.2000
   9 O     x      -1.2000      0.0000      0.0000
           y       0.0000     -1.2000      0.0000
           z       0.0000      0.0000     -1.2000

  Elastic Constant Matrix: (Units=GPa)

  Indices      1         2         3         4         5         6
       1  ************************************************************
       2  ************************************************************
       3  ************************************************************
       4  ************************************************************
       5  ************************************************************
       6  ************************************************************

  Elastic Compliance Matrix: (Units=1/GPa)

  Indices      1         2         3         4         5         6
       1   -0.000000 -0.000000 -0.000000  0.000000  0.000000  0.000000
       2   -0.000000 -0.000000 -0.000000 -0.000000 -0.000000  0.000000
       3   -0.000000 -0.000000 -0.000000 -0.000000 -0.000000 -0.000000
       4    0.000000 -0.000000 -0.000000 -0.000000  0.000000 -0.000000
       5    0.000000 -0.000000 -0.000000  0.000000 -0.000000 -0.000000
       6    0.000000  0.000000 -0.000000 -0.000000 -0.000000 -0.000000

  Mechanical properties :

  Convention :                    Reuss         Voigt         Hill
  Bulk  Modulus (GPa)     =       0.00000 ************* *************
  Shear Modulus (GPa)     =       0.00000 ************* *************
  Velocity S-wave (km/s)  =       0.00000  -72595.46281  -51332.74403
  Velocity P-wave (km/s)  =       0.00000   90853.11633   64242.85465
  Stress axis :                     x             y             z
  Youngs Moduli (GPa)     =       0.00000       0.00000       0.00000
  Poissons Ratio (x)      =                     0.00000       0.00000
  Poissons Ratio (y)      =       0.00000                     0.00000
  Poissons Ratio (z)      =       0.00000       0.00000

  Piezoelectric Strain Matrix: (Units=C/m**2)

  Indices      1         2         3         4         5         6
       x     0.07727   0.71660  -0.17761  -0.41494   0.15612   1.19416
       y     0.02456   0.87705  -0.35230   0.01765  -0.15564   0.96449
       z    -0.06122  -0.08565  -0.01780   0.35586  -0.05399  -0.37826

  Piezoelectric Stress Matrix: (Units=10**-11 C/N)

  Indices      1         2         3         4         5         6
       x    -0.00000  -0.00000  -0.00000   0.00000  -0.00000  -0.00000
       y    -0.00000  -0.00000   0.00000  -0.00000   0.00000  -0.00000
       z     0.00000   0.00000   0.00000  -0.00000   0.00000   0.00000

  Static dielectric constant tensor :

              x         y         z
       x     0.98098  -0.00075  -0.00013
       y    -0.00075   0.98221   0.00057
       z    -0.00013   0.00057   0.98209

  Static refractive indices :

    1 =    0.99026      2 =    0.99082      3 =    0.99144

  Phonon Calculation :

  K direction for n-a correction at gamma =  1.00000  1.00000  1.00000

  Number of k points for this configuration =       30

  K point      1 =   0.000000  0.000000  0.000000  Weight =    0.033

  Frequencies (cm-1) [NB: Negative implies an imaginary mode]:

[...]

  K point     30 =   0.500000  0.000000  0.000000  Weight =    0.033

  Frequencies (cm-1) [NB: Negative implies an imaginary mode]:

-4289.37-4162.82-4126.12-4104.81-4055.62-4015.66-3946.87-3904.77-3877.72
-3795.94-3764.94-3649.95-3567.27-3532.88-3300.36-3184.04-2796.89-2748.89

  Phonon properties (per mole of unit cells): Temperature =      0.000 K
  Zero point energy            =        0.000000 eV

  Phonon dispersion curves :

  Section number =   1
  Frequency (cm-1) Phonon dispersion
     9.60   |
     9.20   |
     8.80   |
     8.40   |
     8.00   |
     7.60   |
     7.20   |
     6.80   |
     6.40   |
     6.00   |
     5.60   |
     5.20   |
     4.80   |
     4.40   |
     4.00   |
     3.60   |
     3.20   |
     2.80   |
     2.40   |
     2.00   |
     1.60   |
     1.20   |
     0.80   |
     0.40   |
     0.00   | *

  XYZ File written as gulp.xyz

  Time to end of properties =       0.1040 seconds

  Timing analysis for GULP :

  Task / Subroutine                                          Time (Seconds)
  Calculation of real space energy and derivatives                0.0600
  Calculation of phonons                                          0.0880
  Calculation of scattering                                       0.0000
  Disk read/write operations to scratch files                     0.0040

  Job Finished at 22:26.04 27th April      2013