**** Warning - inter/intra/both directive given on potential line ****
**** but the molecule directive is currently inactive             ****

**** Warning - inter/intra/both directive given on potential line ****
**** but the molecule directive is currently inactive             ****

**** Warning - inter/intra/both directive given on potential line ****
**** but the molecule directive is currently inactive             ****
*  single       - perform a single point run                                   *
*  phonon       - calculate phonons for final geometry                         *

  Job Started  at 09:38.47 15th April      2013

  Number of CPUs =     1

  Total number of configurations input =   1

*  Input for Configuration =   1                                               *

  Formula = Si3O6

  Number of irreducible atoms/shells =       9

  Total number atoms/shells =       9

  Dimensionality = 3               :  Bulk

  Cartesian lattice vectors (Angstroms) :

        4.913400    0.000000    0.000000
       -2.456700    4.255129    0.000000
        0.000000    0.000000    5.405200

  Cell parameters (Angstroms/Degrees):

  a =       4.9134    alpha =  90.0000
  b =       4.9134    beta  =  90.0000
  c =       5.4052    gamma = 120.0000

  Initial cell volume =         113.007337 Angs**3

  Temperature of configuration =  0.000     K

  Pressure of configuration =         0.000 GPa

  Fractional coordinates of asymmetric unit :

   No.  Atomic       x           y          z         Charge      Occupancy
        Label      (Frac)      (Frac)     (Frac)        (e)         (Frac)
      1 Si    c    0.469900    0.000000    0.666600     2.40000    1.000000
      2 Si    c    0.000000    0.469900    0.333300     2.40000    1.000000
      3 Si    c    0.530100    0.530100    0.000000     2.40000    1.000000
      4 O     c    0.414100    0.268100    0.785400    -1.20000    1.000000
      5 O     c    0.731900    0.146000    0.452000    -1.20000    1.000000
      6 O     c    0.853900    0.585800    0.118700    -1.20000    1.000000
      7 O     c    0.269100    0.414100    0.214600    -1.20000    1.000000
      8 O     c    0.585800    0.853900    0.881200    -1.20000    1.000000
      9 O     c    0.146000    0.731900    0.547900    -1.20000    1.000000

  Brillouin zone sampling points :

  Point number          x          y          z            Weight
        1           0.000000   0.000000   0.000000         0.0333
        2           0.017241   0.000000   0.000000         0.0333
        3           0.034483   0.000000   0.000000         0.0333
        4           0.051724   0.000000   0.000000         0.0333
        5           0.068966   0.000000   0.000000         0.0333
        6           0.086207   0.000000   0.000000         0.0333
        7           0.103448   0.000000   0.000000         0.0333
        8           0.120690   0.000000   0.000000         0.0333
        9           0.137931   0.000000   0.000000         0.0333
       10           0.155172   0.000000   0.000000         0.0333
       11           0.172414   0.000000   0.000000         0.0333
       12           0.189655   0.000000   0.000000         0.0333
       13           0.206897   0.000000   0.000000         0.0333
       14           0.224138   0.000000   0.000000         0.0333
       15           0.241379   0.000000   0.000000         0.0333
       16           0.258621   0.000000   0.000000         0.0333
       17           0.275862   0.000000   0.000000         0.0333
       18           0.293103   0.000000   0.000000         0.0333
       19           0.310345   0.000000   0.000000         0.0333
       20           0.327586   0.000000   0.000000         0.0333
       21           0.344828   0.000000   0.000000         0.0333
       22           0.362069   0.000000   0.000000         0.0333
       23           0.379310   0.000000   0.000000         0.0333
       24           0.396552   0.000000   0.000000         0.0333
       25           0.413793   0.000000   0.000000         0.0333
       26           0.431034   0.000000   0.000000         0.0333
       27           0.448276   0.000000   0.000000         0.0333
       28           0.465517   0.000000   0.000000         0.0333
       29           0.482759   0.000000   0.000000         0.0333
       30           0.500000   0.000000   0.000000         0.0333

*  General input information                                                   *

  Species output for all configurations :

  Species    Type    Atomic    Atomic    Charge       Radii (Angs)     Library
                     Number     Mass       (e)     Cova   Ionic  VDW   Symbol
    Si       Core       14      28.09   2.400000   1.200  0.000  2.100
    O        Core        8      16.00  -1.200000   0.730  0.000  1.360

  Lattice summation method = Wolf et al

  Modified method - smoothed energy only / correct forces

  Eta    =     0.223000 Angstrom**-1
  Cutoff =    12.000000 Angstrom

  Time limit = Infinity

  Maximum range for interatomic potentials =    100000.000000 Angstroms

  General interatomic potentials :

Atom  Types   Potential         A         B         C         D     Cutoffs(Ang)
  1     2                                                            Min    Max
Si   c Si   c Buckingham    0.872E+09 0.657E-01  23.3      0.00     0.000 12.000
O    c O    c Buckingham     420.     0.351      215.      0.00     0.000 12.000
O    c Si   c Buckingham    0.256E+04 0.209      70.7      0.00     0.000 12.000
Si   c Si   c Lenn/es 12  6  13.2     0.400      0.00      0.00     0.000  8.500
Si   c Si   c Lenn/es 12  6 0.478E-03  2.20      0.00      0.00     0.000  8.500
Si   c Si   c Lenn/es 12  6 0.112E-01  1.30      0.00      0.00     0.000  8.500

*  Output for configuration   1                                                *

  Components of energy :

  Interatomic potentials     =         -48.63758000 eV
  Monopole - monopole (real) =        -124.02440981 eV
  Monopole - monopole (recip)=           0.00000000 eV
  Monopole - monopole (total)=        -124.02440981 eV
  Wolf sum self energy       =         -46.96153530 eV
  Total lattice energy       =        -219.62352510 eV
  Total lattice energy       =          -21190.3129 kJ/(mole unit cells)

  Born effective charge tensors :

  Atom             x           y             z
   1 Si    x       2.4000      0.0000      0.0000
           y       0.0000      2.4000      0.0000
           z       0.0000      0.0000      2.4000
   2 Si    x       2.4000      0.0000      0.0000
           y       0.0000      2.4000      0.0000
           z       0.0000      0.0000      2.4000
   3 Si    x       2.4000      0.0000      0.0000
           y       0.0000      2.4000      0.0000
           z       0.0000      0.0000      2.4000
   4 O     x      -1.2000      0.0000      0.0000
           y       0.0000     -1.2000      0.0000
           z       0.0000      0.0000     -1.2000
   5 O     x      -1.2000      0.0000      0.0000
           y       0.0000     -1.2000      0.0000
           z       0.0000      0.0000     -1.2000
   6 O     x      -1.2000      0.0000      0.0000
           y       0.0000     -1.2000      0.0000
           z       0.0000      0.0000     -1.2000
   7 O     x      -1.2000      0.0000      0.0000
           y       0.0000     -1.2000      0.0000
           z       0.0000      0.0000     -1.2000
   8 O     x      -1.2000      0.0000      0.0000
           y       0.0000     -1.2000      0.0000
           z       0.0000      0.0000     -1.2000
   9 O     x      -1.2000      0.0000      0.0000
           y       0.0000     -1.2000      0.0000
           z       0.0000      0.0000     -1.2000

  Elastic Constant Matrix: (Units=GPa)

  Indices      1         2         3         4         5         6
       1   -137.7067 -576.8419 -569.1381  -24.1111   -1.2787    0.0318
       2   -576.8419 -136.3607 -567.5869   22.1930   -0.7748    0.6494
       3   -569.1381 -567.5869 -386.4183   -1.1874   -0.3115    0.6615
       4    -24.1111   22.1930   -1.1874  403.9837   -1.0271    0.4383
       5     -1.2787   -0.7748   -0.3115   -1.0271  403.7456  -23.1559
       6      0.0318    0.6494    0.6615    0.4383  -23.1559  219.3353

  Elastic Compliance Matrix: (Units=1/GPa)

  Indices      1         2         3         4         5         6
       1    0.001662 -0.000622 -0.001534  0.000129  0.000004  0.000006
       2   -0.000622  0.001670 -0.001536 -0.000133 -0.000000  0.000000
       3   -0.001534 -0.001536  0.001928 -0.000002 -0.000006 -0.000002
       4    0.000129 -0.000133 -0.000002  0.002490  0.000006 -0.000004
       5    0.000004 -0.000000 -0.000006  0.000006  0.002492  0.000263
       6    0.000006  0.000000 -0.000002 -0.000004  0.000263  0.004587

  Mechanical properties :

  Convention :                    Reuss         Voigt         Hill
  Bulk  Modulus (GPa)     =    -470.57942    -454.17993    -462.37968
  Shear Modulus (GPa)     =     232.50223     275.61830     254.06026
  Velocity S-wave (km/s)  =       9.36865      10.20041       9.79337
  Velocity P-wave (km/s)  =       7.78582       5.72065       6.83172
  Compressibility (1/GPa) =   -0.00212504
  Stress axis :                     x             y             z
  Youngs Moduli (GPa)     =     601.82911     598.90979     518.59688
  Poissons Ratio (x)      =                     0.37245       0.79566
  Poissons Ratio (y)      =       0.37426                     0.79666
  Poissons Ratio (z)      =       0.92336       0.92004

  Piezoelectric Strain Matrix: (Units=C/m**2)

  Indices      1         2         3         4         5         6
       x     3.91657  -3.98720  -0.03154  -3.08823  -0.04274  -0.00619
       y    -0.02474  -0.01772  -0.01375   0.05790   3.09043  -3.95923
       z    -0.03743   0.04059   0.04148   0.01223  -0.01219  -0.00309

  Piezoelectric Stress Matrix: (Units=10**-11 C/N)

  Indices      1         2         3         4         5         6
       x     0.86377  -0.86327   0.00603  -0.66548  -0.01121  -0.00026
       y    -0.00156  -0.00018   0.00255   0.01783   0.66598  -1.73484
       z    -0.01496   0.00257   0.00751   0.00201  -0.00315  -0.00178

  Static dielectric constant tensor :

              x         y         z
       x     1.19869   0.00090   0.00046
       y     0.00090   1.19924   0.00029
       z     0.00046   0.00029   1.23044

  Static refractive indices :

    1 =    1.09454      2 =    1.09540      3 =    1.10926

  Phonon Calculation :

  K direction for n-a correction at gamma =  1.00000  1.00000  1.00000

  Number of k points for this configuration =       30

  K point      1 =   0.000000  0.000000  0.000000  Weight =    0.033

  Frequencies (cm-1) [NB: Negative implies an imaginary mode]:

[...]

  K point     30 =   0.500000  0.000000  0.000000  Weight =    0.033

  Frequencies (cm-1) [NB: Negative implies an imaginary mode]:

-1617.01-1610.33-1584.42-1513.27-1469.06-1427.46 -825.50 -789.89 -780.29
 -603.58 -451.04 -348.04  284.80  307.43  457.09  514.55  527.77  602.42
  615.31  683.49  711.14  717.18  754.69  814.43  830.62  880.49  917.88

  Phonon properties (per mole of unit cells): Temperature =      0.000 K
  Zero point energy            =        0.580187 eV

  Phonon dispersion curves :

  Section number =   1
  Frequency (cm-1) Phonon dispersion
   935.61   | *
   896.63   |                     * * * * * * * * * * * * * * * * * * * *
   857.65   | * * * * * * * * * * * * * * * * * * * * * * * * * * * * * *
   818.66   | * * * * * * * * * * * * * * * * * * * * * * * * * * * * * *
   779.68   | * * * * * * * * * * * * * * * * * * * * * * * * * * * * * *
   740.70   | *                   * * * * * * * * * * * * * * * * * * * *
   701.71   | * * * * * * * * * * * * * * * * * * * * * * * * * * * * * *
   662.73   | * * * * * * * * * * * * * * * * * * * * * * * * * * * * * *
   623.74   | * * * * * * * * * * * * * * * * *
   584.76   | * * * * * * * * * * * * * * * * * * * * * * * * * * * * * *
   545.78   |         * * * * * * * * * * *   * * * * * * * *
   506.79   |                               * * * * * * * * * * * * * * *
   467.81   |
   428.82   |                                               * * * * * * *
   389.84   |                             * * * * * * * * *
   350.86   | * * * * * * * * * * * * * *
   311.87   |
   272.89   |                                       * * * * * * * * * * *
   233.90   |                               * * * *     * * * * *
   194.92   |                         * * *     * * * *
   155.94   |                     * *   * * * *
   116.95   |               * * * * * *
    77.97   |           * * * * *
    38.98   |       * * * *
     0.00   | * * *

  XYZ File written as gulp.xyz

  Time to end of properties =       0.1080 seconds

  Timing analysis for GULP :

  Task / Subroutine                                          Time (Seconds)
  Calculation of real space energy and derivatives                0.0760
  Calculation of phonons                                          0.0800
  Calculation of scattering                                       0.0000
  Disk read/write operations to scratch files                     0.0040

  **** GULP has completed with   3 warnings - beware! ****

  Job Finished at 09:38.47 15th April      2013