  Job Started  at 13:06.46  2nd May        2013

  Number of CPUs =     1

  Total number of configurations input =   1

*  Input for Configuration =   1                                               *

  Formula = Si3O6

  Number of irreducible atoms/shells =       9

  Total number atoms/shells =       9

  Dimensionality = 3               :  Bulk

  Cartesian lattice vectors (Angstroms) :

        4.916000    0.000000    0.000000
        0.000000    4.257200    0.000000
        0.000000    0.000000    5.405400

  Cell parameters (Angstroms/Degrees):

  a =       4.9160    alpha =  90.0000
  b =       4.2572    beta  =  90.0000
  c =       5.4054    gamma =  90.0000

  Initial cell volume =         113.126347 Angs**3

  Temperature of configuration =  0.000     K

  Pressure of configuration =         0.000 GPa

  Fractional coordinates of asymmetric unit :

   No.  Atomic       x           y          z         Charge      Occupancy
        Label      (Frac)      (Frac)     (Frac)        (e)         (Frac)
      1 Si    c    0.469900    0.000000    0.666667     2.40000    1.000000
      2 Si    c    0.000000    0.469900    0.333333     2.40000    1.000000
      3 Si    c    0.530100    0.530100    0.000000     2.40000    1.000000
      4 O     c    0.414100    0.268100    0.785400    -1.20000    1.000000
      5 O     c    0.731900    0.146000    0.452067    -1.20000    1.000000
      6 O     c    0.853900    0.585900    0.118733    -1.20000    1.000000
      7 O     c    0.268100    0.414100    0.214600    -1.20000    1.000000
      8 O     c    0.585900    0.854000    0.881278    -1.20000    1.000000
      9 O     c    0.146000    0.731900    0.547933    -1.20000    1.000000

  Brillouin zone sampling points :

  Point number          x          y          z            Weight
        1           0.000000   0.000000   0.000000         0.0333
        2           0.017241   0.000000   0.000000         0.0333
        3           0.034483   0.000000   0.000000         0.0333
        4           0.051724   0.000000   0.000000         0.0333
        5           0.068966   0.000000   0.000000         0.0333
        6           0.086207   0.000000   0.000000         0.0333
        7           0.103448   0.000000   0.000000         0.0333
        8           0.120690   0.000000   0.000000         0.0333
        9           0.137931   0.000000   0.000000         0.0333
       10           0.155172   0.000000   0.000000         0.0333
       11           0.172414   0.000000   0.000000         0.0333
       12           0.189655   0.000000   0.000000         0.0333
       13           0.206897   0.000000   0.000000         0.0333
       14           0.224138   0.000000   0.000000         0.0333
       15           0.241379   0.000000   0.000000         0.0333
       16           0.258621   0.000000   0.000000         0.0333
       17           0.275862   0.000000   0.000000         0.0333
       18           0.293103   0.000000   0.000000         0.0333
       19           0.310345   0.000000   0.000000         0.0333
       20           0.327586   0.000000   0.000000         0.0333
       21           0.344828   0.000000   0.000000         0.0333
       22           0.362069   0.000000   0.000000         0.0333
       23           0.379310   0.000000   0.000000         0.0333
       24           0.396552   0.000000   0.000000         0.0333
       25           0.413793   0.000000   0.000000         0.0333
       26           0.431034   0.000000   0.000000         0.0333
       27           0.448276   0.000000   0.000000         0.0333
       28           0.465517   0.000000   0.000000         0.0333
       29           0.482759   0.000000   0.000000         0.0333
       30           0.500000   0.000000   0.000000         0.0333

*  General input information                                                   *

  Species output for all configurations :

  Species    Type    Atomic    Atomic    Charge       Radii (Angs)     Library
                     Number     Mass       (e)     Cova   Ionic  VDW   Symbol
    Si       Core       14      28.09   2.400000   1.200  0.000  2.100
    O        Core        8      16.00  -1.200000   0.730  0.000  1.360

  Lattice summation method               =    Ewald          (3-D)
                                         =    Parry          (2-D)
                                         =    Saunders et al (1-D)
  Accuracy factor for lattice sums       =   12.000

  Time limit = Infinity

  Maximum range for interatomic potentials =    100000.000000 Angstroms

  General interatomic potentials :

Atom  Types   Potential         A         B         C         D     Cutoffs(Ang)
  1     2                                                            Min    Max
O    c Si   c Buckingham    0.188E+05 0.205      134.      0.00     0.000 10.000
O    c O    c Buckingham    0.134E+04 0.362      175.      0.00     0.000 10.000

*  Output for configuration   1                                                *

  Components of energy :

  Interatomic potentials     =           8.42590862 eV
  Monopole - monopole (real) =         -74.24628123 eV
  Monopole - monopole (recip)=         -91.96336435 eV
  Monopole - monopole (total)=        -166.20964559 eV
  Total lattice energy       =        -157.78373697 eV
  Total lattice energy       =          -15223.7187 kJ/(mole unit cells)

  Born effective charge tensors :

  Atom             x           y             z
   1 Si    x       2.4000      0.0000      0.0000
           y       0.0000      2.4000      0.0000
           z       0.0000      0.0000      2.4000
   2 Si    x       2.4000      0.0000      0.0000
           y       0.0000      2.4000      0.0000
           z       0.0000      0.0000      2.4000
   3 Si    x       2.4000      0.0000      0.0000
           y       0.0000      2.4000      0.0000
           z       0.0000      0.0000      2.4000
   4 O     x      -1.2000      0.0000      0.0000
           y       0.0000     -1.2000      0.0000
           z       0.0000      0.0000     -1.2000
   5 O     x      -1.2000      0.0000      0.0000
           y       0.0000     -1.2000      0.0000
           z       0.0000      0.0000     -1.2000
   6 O     x      -1.2000      0.0000      0.0000
           y       0.0000     -1.2000      0.0000
           z       0.0000      0.0000     -1.2000
   7 O     x      -1.2000      0.0000      0.0000
           y       0.0000     -1.2000      0.0000
           z       0.0000      0.0000     -1.2000
   8 O     x      -1.2000      0.0000      0.0000
           y       0.0000     -1.2000      0.0000
           z       0.0000      0.0000     -1.2000
   9 O     x      -1.2000      0.0000      0.0000
           y       0.0000     -1.2000      0.0000
           z       0.0000      0.0000     -1.2000

  Elastic Constant Matrix: (Units=GPa)

  Indices      1         2         3         4         5         6
       1    783.4379  526.4552  743.4408 -139.5189    8.5470  413.7093
       2    526.4552  470.2791  657.1505  -41.1288   45.2448  314.6408
       3    743.4408  657.1505  849.7957  -94.7013   -4.1588  398.5206
       4   -139.5189  -41.1288  -94.7013  198.4148   21.9206  -45.4853
       5      8.5470   45.2448   -4.1588   21.9206  180.4586   60.1134
       6    413.7093  314.6408  398.5206  -45.4853   60.1134  247.6518

  Elastic Compliance Matrix: (Units=1/GPa)

  Indices      1         2         3         4         5         6
       1    0.023239 -0.012301  0.007654  0.007326  0.013764 -0.037506
       2   -0.012301 -0.011115  0.011773 -0.001558 -0.001429  0.015786
       3    0.007654  0.011773 -0.004888  0.000384  0.003399 -0.020632
       4    0.007326 -0.001558  0.000384  0.007454  0.002518 -0.010119
       5    0.013764 -0.001429  0.003399  0.002518  0.014952 -0.029814
       6   -0.037506  0.015786 -0.020632 -0.010119 -0.029814  0.085216

  Mechanical properties :

  Convention :                    Reuss         Voigt         Hill
  Bulk  Modulus (GPa)     =      46.53718     661.95618     354.24668
  Shear Modulus (GPa)     =      46.39616     137.06947      91.73281
  Velocity S-wave (km/s)  =       4.18729       7.19718       5.88782
  Velocity P-wave (km/s)  =       6.40036      17.86682      13.41991
  Compressibility (1/GPa) =    0.02148819
  Stress axis :                     x             y             z
  Youngs Moduli (GPa)     =      43.03047     -89.96883    -204.56212
  Poissons Ratio (x)      =                    -1.10669       1.56572
  Poissons Ratio (y)      =       0.52931                     2.40829
  Poissons Ratio (z)      =      -0.32936       1.05920

  Piezoelectric Strain Matrix: (Units=C/m**2)

  Indices      1         2         3         4         5         6
       x   -37.98098 -40.74340 -46.55150   3.39449   5.23624 -36.00679
       y   -46.91168 -34.99425 -45.45179  -4.40536   3.73690 -35.57884
       z    -7.51720  -4.84159  -7.85029   2.42979   1.65727  -4.70694

  Piezoelectric Stress Matrix: (Units=10**-11 C/N)

  Indices      1         2         3         4         5         6
       x    70.96278 -20.91634  21.91751  17.01898  53.75701-151.70285
       y    34.59542 -12.92160  19.62070   2.99871  35.53595 -95.39082
       z     4.19239  -2.65959   2.75183   1.93711   4.79994 -10.76269

  Static dielectric constant tensor :

              x         y         z
       x    -0.29137  -2.88721  -0.36654
       y    -2.88721  -0.88371  -0.13473
       z    -0.36654  -0.13473   2.47064

  Static refractive indices :

    1 =   -1.87347      2 =    1.48360      3 =    1.61381

  Phonon Calculation :

  K direction for n-a correction at gamma =  1.00000  1.00000  1.00000

  Number of k points for this configuration =       30

  K point      1 =   0.000000  0.000000  0.000000  Weight =    0.033

  Frequencies (cm-1) [NB: Negative implies an imaginary mode]:

[...]

  K point     30 =   0.500000  0.000000  0.000000  Weight =    0.033

  Frequencies (cm-1) [NB: Negative implies an imaginary mode]:

 -456.90 -377.70 -290.52 -254.81 -191.81  -91.81  155.41  169.51  195.65
  251.42  285.45  354.33  374.14  382.94  432.81  491.67  549.28  607.11
  638.49  671.06  724.77  782.47  989.28 1393.12 1466.42 1529.60 1651.61

  Phonon properties (per mole of unit cells): Temperature =      0.000 K
  Zero point energy            =        0.865666 eV

  Phonon dispersion curves :

  Section number =   1
  Frequency (cm-1) Phonon dispersion
  1598.33   | * * * * * * * * * * * * * * * * * * * * * * * * * * * * * *
  1531.73   |
  1465.14   | * * * * * * * * * * * * * * * * * * * * * * * * * * * * * *
  1398.54   |
  1331.94   | * * * * * * * * * * * * * * * * * * * * * * * * * * * * * *
  1265.35   |
  1198.75   |
  1132.15   |
  1065.55   |
   998.96   |
   932.36   | * * * * * * * * * * * * * * * * * * * * * * * * * * * * * *
   865.76   |
   799.17   |
   732.57   | * * * * * * * * * * * * * * * * * * * * * * * * * * * * * *
   665.97   | * * * * * * * * * * * * * * * * * * * * * * * * * * * * * *
   599.37   | * * * * * * * * * * * * * * * * * * * * * * * * * * * * * *
   532.78   | * * * * * * * * * * * * * * * * * * * * * * * * * * * * * *
   466.18   | * * * * * * * * * * * * * * * * * * * * * * * * * * * * * *
   399.58   | * * * * * * * * * * * * * * *         * * * * * * * * * * *
   332.99   |         * * * * * * * * * * * * * * * * * * * * * * * * * *
   266.39   | * * * * * * * * * * * * * * * * * * * * * * * * * * * * * *
   199.79   | * * * * * * * * * * * * * * * * * * * * * * * * * * * * * *
   133.19   |                   * * * * * * * * * * * * * * * * * * * * *
    66.60   |     * * * * * * * * * * * * * * * * * *
     0.00   | * * * * * * * * *

  XYZ File written as gulp.xyz

  Time to end of properties =       0.1600 seconds

  Timing analysis for GULP :

  Task / Subroutine                                          Time (Seconds)
  Calculation of reciprocal space energy and derivatives          0.0840
  Calculation of real space energy and derivatives                0.0560
  Calculation of phonons                                          0.1480
  Calculation of scattering                                       0.0000

  Job Finished at 13:06.46  2nd May        2013