  Job Started  at 16:06.31  2nd May        2013

  Number of CPUs =     1

  Total number of configurations input =   1

*  Input for Configuration =   1                                               *

  Formula = Si3O6

  Number of irreducible atoms/shells =       9

  Total number atoms/shells =       9

  Dimensionality = 3               :  Bulk

  Cartesian lattice vectors (Angstroms) :

        4.916000    0.000000    0.000000
       -2.458000    4.257381    0.000000
        0.000000    0.000000    5.405400

  Cell parameters (Angstroms/Degrees):

  a =       4.9160    alpha =  90.0000
  b =       4.9160    beta  =  90.0000
  c =       5.4054    gamma = 120.0000

  Initial cell volume =         113.131154 Angs**3

  Temperature of configuration =  0.000     K

  Pressure of configuration =         0.000 GPa

  Fractional coordinates of asymmetric unit :

   No.  Atomic       x           y          z         Charge      Occupancy
        Label      (Frac)      (Frac)     (Frac)        (e)         (Frac)
      1 Si    c    0.469900    0.000000    0.000000     2.40000    1.000000
      2 Si    c    0.000000 *  0.469900 *  0.666667 *   2.40000    1.000000
      3 Si    c    0.530100 *  0.530100 *  0.333333 *   2.40000    1.000000
      4 O     c    0.414100 *  0.268100 *  0.118800 *  -1.20000    1.000000
      5 O     c    0.267200 *  0.413300 *  0.547900 *  -1.20000    1.000000
      6 O     c    0.732800 *  0.146100 *  0.785500 *  -1.20000    1.000000
      7 O     c    0.586700 *  0.853900 *  0.214600 *  -1.20000    1.000000
      8 O     c    0.853900 *  0.586700 *  0.452100 *  -1.20000    1.000000
      9 O     c    0.146000 *  0.731900 *  0.881200 *  -1.20000    1.000000

  Brillouin zone sampling points :

  Point number          x          y          z            Weight
        1           0.000000   0.000000   0.000000         0.0333
        2           0.017241   0.000000   0.000000         0.0333
        3           0.034483   0.000000   0.000000         0.0333
        4           0.051724   0.000000   0.000000         0.0333
        5           0.068966   0.000000   0.000000         0.0333
        6           0.086207   0.000000   0.000000         0.0333
        7           0.103448   0.000000   0.000000         0.0333
        8           0.120690   0.000000   0.000000         0.0333
        9           0.137931   0.000000   0.000000         0.0333
       10           0.155172   0.000000   0.000000         0.0333
       11           0.172414   0.000000   0.000000         0.0333
       12           0.189655   0.000000   0.000000         0.0333
       13           0.206897   0.000000   0.000000         0.0333
       14           0.224138   0.000000   0.000000         0.0333
       15           0.241379   0.000000   0.000000         0.0333
       16           0.258621   0.000000   0.000000         0.0333
       17           0.275862   0.000000   0.000000         0.0333
       18           0.293103   0.000000   0.000000         0.0333
       19           0.310345   0.000000   0.000000         0.0333
       20           0.327586   0.000000   0.000000         0.0333
       21           0.344828   0.000000   0.000000         0.0333
       22           0.362069   0.000000   0.000000         0.0333
       23           0.379310   0.000000   0.000000         0.0333
       24           0.396552   0.000000   0.000000         0.0333
       25           0.413793   0.000000   0.000000         0.0333
       26           0.431034   0.000000   0.000000         0.0333
       27           0.448276   0.000000   0.000000         0.0333
       28           0.465517   0.000000   0.000000         0.0333
       29           0.482759   0.000000   0.000000         0.0333
       30           0.500000   0.000000   0.000000         0.0333

*  General input information                                                   *

  Species output for all configurations :

  Species    Type    Atomic    Atomic    Charge       Radii (Angs)     Library
                     Number     Mass       (e)     Cova   Ionic  VDW   Symbol
    Si       Core       14      28.09   2.400000   1.200  0.000  2.100
    O        Core        8      16.00  -1.200000   0.730  0.000  1.360

  Lattice summation method = Wolf et al

  Modified method - smoothed energy only / correct forces

  Eta    =     0.223000 Angstrom**-1
  Cutoff =    10.000000 Angstrom

  Time limit = Infinity

  Maximum range for interatomic potentials =    100000.000000 Angstroms

  General interatomic potentials :

Atom  Types   Potential         A         B         C         D     Cutoffs(Ang)
  1     2                                                            Min    Max
O    c Si   c Buckingham    0.188E+05 0.205      134.      0.00     0.000 10.000
O    c O    c Buckingham    0.134E+04 0.362      175.      0.00     0.000 10.000

*  Output for configuration   1                                                *

  Components of energy :

  Interatomic potentials     =          -0.86394793 eV
  Monopole - monopole (real) =        -123.96427315 eV
  Monopole - monopole (recip)=           0.00000000 eV
  Monopole - monopole (total)=        -123.96427315 eV
  Wolf sum self energy       =         -46.98922585 eV
  Total lattice energy       =        -171.81744692 eV
  Total lattice energy       =          -16577.7572 kJ/(mole unit cells)

  Number of variables =       30

  Maximum number of calculations  =          1000
  Maximum Hessian update interval =            10
  Maximum step size               =   1.000000000
  Maximum parameter tolerance     =   0.000010000
  Maximum function  tolerance     =   0.000010000
  Maximum gradient  tolerance     =   0.001000000
  Maximum gradient  component     =   0.010000000

  Symmetry not applied to optimisation

  Cell parameters to be optimised using strains

  Newton-Raphson optimiser to be used

  BFGS hessian update to be used

  Start of bulk optimisation :

  ** Hessian calculated **
  ** Hessian calculated **
  ** Hessian calculated **
  ** Hessian calculated **
  ** Hessian calculated **
  ** Hessian calculated **
  ** Hessian calculated **

  XYZ File written as gulp.xyz

  **** Conditions for a minimum have not been satisfied. However ****
  **** no lower point can be found - treat results with caution  ****
  **** unless gradient norm is small (less than 0.1)             ****

  Final energy =    -172.08981439 eV
  Final Gnorm  =       0.01626916

  Components of energy :

  Interatomic potentials     =          -2.56184341 eV
  Monopole - monopole (real) =        -122.53874514 eV
  Monopole - monopole (recip)=           0.00000000 eV
  Monopole - monopole (total)=        -122.53874514 eV
  Wolf sum self energy       =         -46.98922585 eV
  Total lattice energy       =        -172.08981439 eV
  Total lattice energy       =          -16604.0365 kJ/(mole unit cells)

  Final fractional coordinates of atoms :

   No.  Atomic        x           y          z          Radius
        Label       (Frac)      (Frac)     (Frac)       (Angs)
     1  Si    c     0.469900    0.000000    0.000000    0.000000
     2  Si    c     0.008899    0.461033    0.666700    0.000000
     3  Si    c     0.547873    0.538973    0.333202    0.000000
     4  O     c     0.434515    0.277099    0.120479    0.000000
     5  O     c     0.285875    0.425507    0.545972    0.000000
     6  O     c     0.731873    0.148492    0.787236    0.000000
     7  O     c     0.583382    0.851504    0.212737    0.000000
     8  O     c     0.860387    0.574485    0.453929    0.000000
     9  O     c     0.157398    0.722865    0.879457    0.000000

  Final Cartesian lattice vectors (Angstroms) :

[...]

  Final cell parameters and derivatives :

       a            4.998279 Angstrom     dE/de1(xx)    -0.196399 eV/strain
       b            4.999892 Angstrom     dE/de2(yy)    -0.176836 eV/strain
       c            5.492347 Angstrom     dE/de3(zz)    -0.086451 eV/strain
       alpha       89.988930 Degrees      dE/de4(yz)     0.022363 eV/strain
       beta        89.999812 Degrees      dE/de5(xz)     0.003059 eV/strain
       gamma      119.999840 Degrees      dE/de6(xy)    -0.005665 eV/strain

  Primitive cell volume =           118.869490 Angs**3

  Density of cell =      2.518309 g/cm**3

  Non-primitive cell volume =           118.869490 Angs**3

  Final internal derivatives :

   No.  Atomic          a             b             c           Radius
        Label          (eV)          (eV)          (eV)        (eV/Angs)
      1 Si    c       0.000000      0.000000      0.000000      0.000000
      2 Si    c       0.115679     -0.250482      0.034968      0.000000
      3 Si    c       0.111878      0.139903     -0.040441      0.000000
      4 O     c      -0.052165     -0.017986     -0.029993      0.000000
      5 O     c      -0.036871     -0.048364      0.018594      0.000000
      6 O     c       0.089352     -0.047330     -0.034228      0.000000
      7 O     c       0.092633     -0.048567      0.048037      0.000000
      8 O     c      -0.035483      0.085087     -0.022666      0.000000
      9 O     c      -0.052337      0.066309      0.022532      0.000000
  Maximum abs         0.115679      0.250482      0.048037      0.000000

  Born effective charge tensors :

  Atom             x           y             z
   1 Si    x       2.4000      0.0000      0.0000
           y       0.0000      2.4000      0.0000
           z       0.0000      0.0000      2.4000
   2 Si    x       2.4000      0.0000      0.0000
           y       0.0000      2.4000      0.0000
           z       0.0000      0.0000      2.4000
   3 Si    x       2.4000      0.0000      0.0000
           y       0.0000      2.4000      0.0000
           z       0.0000      0.0000      2.4000
   4 O     x      -1.2000      0.0000      0.0000
           y       0.0000     -1.2000      0.0000
           z       0.0000      0.0000     -1.2000
   5 O     x      -1.2000      0.0000      0.0000
           y       0.0000     -1.2000      0.0000
           z       0.0000      0.0000     -1.2000
   6 O     x      -1.2000      0.0000      0.0000
           y       0.0000     -1.2000      0.0000
           z       0.0000      0.0000     -1.2000
   7 O     x      -1.2000      0.0000      0.0000
           y       0.0000     -1.2000      0.0000
           z       0.0000      0.0000     -1.2000
   8 O     x      -1.2000      0.0000      0.0000
           y       0.0000     -1.2000      0.0000
           z       0.0000      0.0000     -1.2000
   9 O     x      -1.2000      0.0000      0.0000
           y       0.0000     -1.2000      0.0000
           z       0.0000      0.0000     -1.2000

  Elastic Constant Matrix: (Units=GPa)

  Indices      1         2         3         4         5         6
       1     78.9177   12.6110   13.7917   16.4774    0.0036   -0.0293
       2     12.6110   78.9358   13.7839  -16.3078    0.0061   -0.0212
       3     13.7917   13.7839   98.1494    0.1005   -0.0065   -0.0089
       4     16.4774  -16.3078    0.1005   37.9820   -0.0076   -0.0030
       5      0.0036    0.0061   -0.0065   -0.0076   37.9049   16.4327
       6     -0.0293   -0.0212   -0.0089   -0.0030   16.4327   33.0762

  Elastic Compliance Matrix: (Units=1/GPa)

  Indices      1         2         3         4         5         6
       1    0.015304 -0.003881 -0.001597 -0.008301 -0.000009  0.000014
       2   -0.003881  0.015273 -0.001608  0.008245 -0.000005  0.000009
       3   -0.001597 -0.001608  0.010639 -0.000026  0.000003 -0.000001
       4   -0.008301  0.008245 -0.000026  0.033470  0.000007 -0.000003
       5   -0.000009 -0.000005  0.000003  0.000007  0.033624 -0.016705
       6    0.000014  0.000009 -0.000001 -0.000003 -0.016705  0.038532

  Mechanical properties :

  Convention :                    Reuss         Voigt         Hill
  Bulk  Modulus (GPa)     =      36.97740      37.37512      37.17626
  Shear Modulus (GPa)     =      29.40690      36.18037      32.79364
  Velocity S-wave (km/s)  =       3.41720       3.79037       3.60861
  Velocity P-wave (km/s)  =       5.50028       5.83072       5.66791
  Compressibility (1/GPa) =    0.02704355
  Stress axis :                     x             y             z
  Youngs Moduli (GPa)     =      65.34257      65.47563      93.99567
  Poissons Ratio (x)      =                     0.25412       0.15010
  Poissons Ratio (y)      =       0.25360                     0.15114
  Poissons Ratio (z)      =       0.10435       0.10528

  Piezoelectric Strain Matrix: (Units=C/m**2)

  Indices      1         2         3         4         5         6
       x     2.02096  -2.01691   0.00406   0.16743   0.00090  -0.00158
       y    -0.00049  -0.00368  -0.00160  -0.00065  -0.17060  -2.01197
       z     0.00038  -0.00019   0.00028  -0.00095   0.00801  -0.00232

  Piezoelectric Stress Matrix: (Units=10**-11 C/N)

  Indices      1         2         3         4         5         6
       x     3.73602  -3.72737   0.00548  -2.78034   0.00490  -0.00654
       y    -0.00125  -0.00743  -0.00090  -0.00439   2.78732  -7.46761
       z     0.00140  -0.00128   0.00027  -0.00366   0.03080  -0.02232

  Static dielectric constant tensor :

              x         y         z
       x     1.97589   0.00018   0.00005
       y     0.00018   1.97479  -0.00014
       z     0.00005  -0.00014   2.03094

  Static refractive indices :

    1 =    1.40526      2 =    1.40567      3 =    1.42511

  Phonon Calculation :

  K direction for n-a correction at gamma =  1.00000  1.00000  1.00000

  Number of k points for this configuration =       30

  K point      1 =   0.000000  0.000000  0.000000  Weight =    0.033

  Frequencies (cm-1) [NB: Negative implies an imaginary mode]:

[...]

  K point     30 =   0.500000  0.000000  0.000000  Weight =    0.033

  Frequencies (cm-1) [NB: Negative implies an imaginary mode]:

   60.43  138.57  138.76  160.41  187.58  255.22  257.76  343.62  376.34
  400.96  432.59  515.82  533.20  560.39  572.50  630.01  711.70  773.50
  786.35  826.34  857.53 1142.34 1150.05 1150.71 1214.37 1224.26 1241.30

  Phonon properties (per mole of unit cells): Temperature =      0.000 K
  Zero point energy            =        1.019604 eV

  Phonon dispersion curves :

  Section number =   1
  Frequency (cm-1) Phonon dispersion
  1223.35   | * * * * * * * * * * * * * * * * * * * * * * * * * * * * * *
  1172.38   | *                     * * * * * * * * * * * * * * * * * * *
  1121.41   | * * * * * * * * * * * * * * * * * * * * * * * * * * * * * *
  1070.43   |
  1019.46   |
   968.49   |
   917.52   |
   866.54   |
   815.57   | *                   * * * * * * * * * * * * * * * * * * * *
   764.60   | * * * * * * * * * * * * * * * * * * * * * * * * * * * * * *
   713.62   | * * * * * * * * * * * * * * * * * * * * * * * *
   662.65   | *           * * * * * * * * * * * * * * * * * * * * * * * *
   611.68   | * * * * * * * * * * * * * * * * * * * * * * * * * * * * * *
   560.70   | * * * * * * * * * * * * *     * * * * * * * * * * * * * * *
   509.73   |       * * * * * * * * * * * * * * * * * * * * * * * * * * *
   458.76   | *       * * * * * * * * * * * * * * * * * * * * *
   407.78   | * * * * * * * * * * *                     * * * * * * * * *
   356.81   |     * * * * * * * * * * * * * * * * * * *         * * * * *
   305.84   |         * * * * * * * * * * * * * * * * * * * * * * * * * *
   254.87   | * * * * * * * * * * * * * * * * * * * * * * * * * * * * * *
   203.89   | * * * * * * * * * * * * * * * * * * * * * * * * * * * * *
   152.92   | * * * * * * * * * * * * * * * * * * * * * * * * * * * * * *
   101.95   |                               * * * * * * * * * * * * * * *
    50.97   |               * * * * * * * * * * * * * * * * * * * * * * *
     0.00   | * * * * * * * * * * * * * * * *

  Time to end of optimisation =       0.2400 seconds

  Timing analysis for GULP :

  Task / Subroutine                                          Time (Seconds)
  Calculation of real space energy and derivatives                0.2120
  Calculation of phonons                                          0.0680
  Calculation of scattering                                       0.0000

  Job Finished at 16:06.31  2nd May        2013