  Job Started  at 17:35.12 10th March      2013

  Number of CPUs =     1

  Total number of configurations input =   1

*  Input for Configuration =   1                                               *

  Formula = PbTe

  Number of irreducible atoms/shells =       2

  Total number atoms/shells =       2

  Dimensionality = 3               :  Bulk

  Cartesian lattice vectors (Angstroms) :

        6.508965    0.000000    0.000000
        0.000000    6.508965    0.000000
        0.000000    0.000000    6.508965

  Cell parameters (Angstroms/Degrees):

  a =       6.5090    alpha =  90.0000
  b =       6.5090    beta  =  90.0000
  c =       6.5090    gamma =  90.0000

  Initial cell volume =         275.762882 Angs**3

  Temperature of configuration =  0.000     K

  Pressure of configuration =         0.000 GPa

  Fractional coordinates of asymmetric unit :

   No.  Atomic       x           y          z         Charge      Occupancy
        Label      (Frac)      (Frac)     (Frac)        (e)         (Frac)
      1 Pb    c    0.000000    0.000000    0.000000     0.66600    1.000000
      2 Te    c    0.500000 *  0.000000 *  0.000000 *  -0.66600    1.000000

  Brillouin zone sampling points :

  Point number          x          y          z            Weight
        1           0.000000   0.000000   0.000000         0.0909
        2           0.050000   0.050000   0.000000         0.0909
        3           0.100000   0.100000   0.000000         0.0909
        4           0.150000   0.150000   0.000000         0.0909
        5           0.200000   0.200000   0.000000         0.0909
        6           0.250000   0.250000   0.000000         0.0909
        7           0.300000   0.300000   0.000000         0.0909
        8           0.350000   0.350000   0.000000         0.0909
        9           0.400000   0.400000   0.000000         0.0909
       10           0.450000   0.450000   0.000000         0.0909
       11           0.500000   0.500000   0.000000         0.0909

*  General input information                                                   *

  Species output for all configurations :

  Species    Type    Atomic    Atomic    Charge       Radii (Angs)     Library
                     Number     Mass       (e)     Cova   Ionic  VDW   Symbol
    Pb       Core       82     207.20   0.666000   1.540  0.000  2.300
    Te       Core       52     127.60  -0.666000   1.470  0.000  2.200

  Lattice summation method               =    Ewald          (3-D)
                                         =    Parry          (2-D)
                                         =    Saunders et al (1-D)
  Accuracy factor for lattice sums       =   12.000

  Time limit = Infinity

  Maximum range for interatomic potentials =    100000.000000 Angstroms

  C6 terms to be calculated in real and reciprocal space

  General interatomic potentials :

Atom  Types   Potential         A         B         C         D     Cutoffs(Ang)
  1     2                                                            Min    Max
Pb   c Pb   c Buckingham    0.842E+05 0.754E-01  61.0      0.00     0.000 16.000
Te   c Pb   c Buckingham    0.921E+05 0.255      586.      0.00     0.000 16.000
Te   c Te   c Buckingham    0.177E+07 0.257     0.610      0.00     0.000 16.000
Pb   c Pb   c Coulomb        0.00      0.00      0.00      1.00     0.000  1.000
Te   c Pb   c Coulomb        0.00      0.00      0.00      1.00     0.000  1.000
Te   c Te   c Coulomb        0.00      0.00      0.00      1.00     0.000  1.000

*  Output for configuration   1                                                *

  Components of energy :

  Interatomic potentials     =           0.53341299 eV
  Monopole - monopole (real) =          -0.69648798 eV
  Monopole - monopole (recip)=          -1.99355128 eV
  Monopole - monopole (total)=          -2.69003926 eV
  Dispersion (real+recip)    =          -1.03405502 eV
  Total lattice energy       =          -3.19068129 eV
  Total lattice energy       =            -307.8520 kJ/(mole unit cells)

  Number of variables =        3

  Maximum number of calculations  =          1000
  Maximum Hessian update interval =            10
  Maximum step size               =   1.000000000
  Maximum parameter tolerance     =   0.000010000
  Maximum function  tolerance     =   0.000010000
  Maximum gradient  tolerance     =   0.001000000
  Maximum gradient  component     =   0.010000000

  Symmetry not applied to optimisation

  Newton-Raphson optimiser to be used

  BFGS hessian update to be used

  Start of bulk optimisation :

  XYZ File written as gulp.xyz

  **** Optimisation achieved ****

  Final energy =      -3.19068129 eV
  Final Gnorm  =       0.00000000

  Components of energy :

  Interatomic potentials     =           0.53341299 eV
  Monopole - monopole (real) =          -0.69648798 eV
  Monopole - monopole (recip)=          -1.99355128 eV
  Monopole - monopole (total)=          -2.69003926 eV
  Dispersion (real+recip)    =          -1.03405502 eV
  Total lattice energy       =          -3.19068129 eV
  Total lattice energy       =            -307.8520 kJ/(mole unit cells)

  Final fractional coordinates of atoms :

   No.  Atomic        x           y          z          Radius
        Label       (Frac)      (Frac)     (Frac)       (Angs)
     1  Pb    c     0.000000    0.000000    0.000000    0.000000
     2  Te    c     0.500000    0.000000    0.000000    0.000000

  Final Cartesian lattice vectors (Angstroms) :

[...]

  Final cell parameters and derivatives :

       a            6.508965 Angstrom     dE/de1(xx)     0.000000 eV/strain
       b            6.508965 Angstrom     dE/de2(yy)     0.000000 eV/strain
       c            6.508965 Angstrom     dE/de3(zz)     0.000000 eV/strain
       alpha       90.000000 Degrees      dE/de4(yz)     0.000000 eV/strain
       beta        90.000000 Degrees      dE/de5(xz)     0.000000 eV/strain
       gamma       90.000000 Degrees      dE/de6(xy)     0.000000 eV/strain

  Primitive cell volume =           275.762882 Angs**3

  Density of cell =      2.016070 g/cm**3

  Non-primitive cell volume =           275.762882 Angs**3

  Final internal derivatives :

   No.  Atomic          a             b             c           Radius
        Label          (eV)          (eV)          (eV)        (eV/Angs)
      1 Pb    c       0.000000      0.000000      0.000000      0.000000
      2 Te    c       0.000000     -0.000000     -0.000000      0.000000
  Maximum abs         0.000000      0.000000      0.000000      0.000000

  Born effective charge tensors :

  Atom             x           y             z
   1 Pb    x       0.6660      0.0000      0.0000
           y       0.0000      0.6660      0.0000
           z       0.0000      0.0000      0.6660
   2 Te    x      -0.6660      0.0000      0.0000
           y       0.0000     -0.6660      0.0000
           z       0.0000      0.0000     -0.6660

  Elastic Constant Matrix: (Units=GPa)

  Indices      1         2         3         4         5         6
       1     24.7060   -0.4063   -0.4063    0.0000   -0.0000   -0.0000
       2     -0.4063    0.1098   -0.0143    0.0000    0.0000   -0.0000
       3     -0.4063   -0.0143    0.1098   -0.0000   -0.0000   -0.0000
       4      0.0000    0.0000   -0.0000   -0.0131   -0.0000    0.0000
       5     -0.0000    0.0000   -0.0000   -0.0000    0.2007    0.0000
       6     -0.0000   -0.0000   -0.0000    0.0000    0.0000    0.2007

  Elastic Compliance Matrix: (Units=1/GPa)

  Indices      1         2         3         4         5         6
       1    0.047055  0.200050  0.200050 -0.000000  0.000000  0.000000
       2    0.200050 10.110856  2.054435  0.000000  0.000000  0.000000
       3    0.200050  2.054435 10.110856 -0.000000  0.000000  0.000000
       4   -0.000000  0.000000 -0.000000-76.123275 -0.000000  0.000000
       5    0.000000  0.000000  0.000000 -0.000000  4.983179 -0.000000
       6    0.000000  0.000000  0.000000  0.000000 -0.000000  4.983179

  Mechanical properties :

  Convention :                    Reuss         Voigt         Hill
  Bulk  Modulus (GPa)     =       0.03972       2.58578       1.31275
  Shear Modulus (GPa)     =      -0.11791       1.79447       0.83828
  Velocity S-wave (km/s)  =      -0.24184       0.94344       0.64483
  Velocity P-wave (km/s)  =       0.24141       1.57142       1.09797
  Compressibility (1/GPa) =   25.17783891
  Stress axis :                     x             y             z
  Youngs Moduli (GPa)     =      21.25152       0.09890       0.09890
  Poissons Ratio (x)      =                    -0.01979      -0.01979
  Poissons Ratio (y)      =      -4.25138                    -0.20319
  Poissons Ratio (z)      =      -4.25138      -0.20319

  Piezoelectric Strain Matrix: (Units=C/m**2)

  Indices      1         2         3         4         5         6
       x    -0.00000  -0.00000  -0.00000  -0.00000  -0.00000  -0.00000
       y    -0.00000  -0.00000  -0.00000  -0.00000  -0.00000   0.00000
       z    -0.00000  -0.00000   0.00000  -0.00000   0.00000  -0.00000

  Piezoelectric Stress Matrix: (Units=10**-11 C/N)

  Indices      1         2         3         4         5         6
       x    -0.00000  -0.00000  -0.00000   0.00000  -0.00000  -0.00000
       y    -0.00000  -0.00000  -0.00000   0.00000  -0.00000   0.00000
       z     0.00000   0.00000   0.00000   0.00000   0.00000  -0.00000

  Static dielectric constant tensor :

              x         y         z
       x     1.08356  -0.00000   0.00000
       y    -0.00000   2.83318   0.00000
       z     0.00000   0.00000   2.83318

  Static refractive indices :

    1 =    1.04094      2 =    1.68321      3 =    1.68321

  Phonon Calculation :

  K direction for n-a correction at gamma =  1.00000  1.00000  1.00000

  Number of k points for this configuration =       11

  K point      1 =   0.000000  0.000000  0.000000  Weight =    0.091

  Frequencies (cm-1) [NB: Negative implies an imaginary mode]:

[...]

  K point     11 =   0.500000  0.500000  0.000000  Weight =    0.091

  Frequencies (cm-1) [NB: Negative implies an imaginary mode]:

   13.18   16.75   20.33   26.06   69.11   88.12

  Phonon properties (per mole of unit cells): Temperature =      0.000 K
  Zero point energy            =        0.012978 eV

  Phonon dispersion curves :

  Section number =   1
  Frequency (cm-1) Phonon dispersion
   117.01   |
   112.13   |
   107.26   |    *     *    *     *
   102.38   |                          *     *
    97.51   |                                     *
    92.63   |                                           *    *
    87.76   |                                                      *    *
    82.88   |
    78.01   |
    73.13   |
    68.25   |                                                           *
    63.38   |                                                      *
    58.50   |                                                *
    53.63   |                                           *
    48.75   |                                     *
    43.88   |
    39.00   |                                *
    34.13   |
    29.25   |    *     *    *     *    *     *    *     *
    24.38   |                     *                          *     *    *
    19.50   |    *     *    *     *    *     *    *                     *
    14.63   |               *                           *    *     *    *
     9.75   |                                *    *     *    *     *    *
     4.88   |          *          *    *     *    *
     0.00   |    *     *    *     *

  Phonon dispersion written as kpath.disp

  Time to end of optimisation =       0.0160 seconds

  Timing analysis for GULP :

  Task / Subroutine                                          Time (Seconds)
  Calculation of reciprocal space energy and derivatives          0.0080
  Calculation of phonons                                          0.0080
  Calculation of scattering                                       0.0000

  Job Finished at 17:35.12 10th March      2013