  Job Started  at 16:40.50 30th June       2013

  Number of CPUs =     1

  Host name      = gilgamesh.cheme.cmu.edu

  Total number of configurations input =   1

*  Input for Configuration =   1                                               *

  Formula = Ar256

  Number of irreducible atoms/shells =     256

  Total number atoms/shells =     256

  Dimensionality = 3               :  Bulk

  Cartesian lattice vectors (Angstroms) :

       21.483900    0.000000    0.000000
        0.000000   21.483900    0.000000
        0.000000    0.000000   21.483900

  Cell parameters (Angstroms/Degrees):

  a =      21.4839    alpha =  90.0000
  b =      21.4839    beta  =  90.0000
  c =      21.4839    gamma =  90.0000

  Initial cell volume =        9916.065040 Angs**3

  Temperature of configuration =  1000.     K

  Pressure of configuration =         0.000 GPa

  Fractional coordinates of asymmetric unit :

   No.  Atomic       x           y          z         Charge      Occupancy
        Label      (Frac)      (Frac)     (Frac)        (e)         (Frac)
      1 Ar    c    0.498420    0.342613    0.995727     0.00000    1.000000
      2 Ar    c    0.819032    0.630435    0.617365     0.00000    1.000000
      3 Ar    c    0.643919    0.102986    0.041318     0.00000    1.000000
      4 Ar    c    0.978398    0.073293    0.727684     0.00000    1.000000
      5 Ar    c    0.700227    0.132449    0.200386     0.00000    1.000000
      6 Ar    c    0.790117    0.538170    0.479568     0.00000    1.000000
      7 Ar    c    0.676665    0.535955    0.356698     0.00000    1.000000
      8 Ar    c    0.646405    0.849832    0.942096     0.00000    1.000000
      9 Ar    c    0.107862    0.300388    0.268103     0.00000    1.000000
     10 Ar    c    0.187631    0.550328    0.853076     0.00000    1.000000
     11 Ar    c    0.851493    0.398066    0.170143     0.00000    1.000000
     12 Ar    c    0.473396    0.074905    0.516666     0.00000    1.000000
     13 Ar    c    0.968902    0.547936    0.309236     0.00000    1.000000
     14 Ar    c    0.589004    0.957415    0.478824     0.00000    1.000000
     15 Ar    c    0.939545    0.860672    0.110589     0.00000    1.000000
     16 Ar    c    0.479173    0.407309    0.834620     0.00000    1.000000
     17 Ar    c    0.866654    0.944405    0.364848     0.00000    1.000000
     18 Ar    c    0.458981    0.088899    0.343327     0.00000    1.000000
     19 Ar    c    0.807498    0.490377    0.886734     0.00000    1.000000
     20 Ar    c    0.350193    0.427091    0.967385     0.00000    1.000000
     21 Ar    c    0.237545    0.126725    0.926666     0.00000    1.000000
     22 Ar    c    0.280481    0.732800    0.570045     0.00000    1.000000
     23 Ar    c    0.924432    0.215421    0.872523     0.00000    1.000000
     24 Ar    c    0.568970    0.077532    0.813684     0.00000    1.000000
     25 Ar    c    0.686714    0.366573    0.264418     0.00000    1.000000
     26 Ar    c    0.722890    0.334953    0.697648     0.00000    1.000000
     27 Ar    c    0.774687    0.739335    0.937218     0.00000    1.000000
     28 Ar    c    0.939862    0.031460    0.044624     0.00000    1.000000
     29 Ar    c    0.601474    0.564474    0.060838     0.00000    1.000000
     30 Ar    c    0.242228    0.320063    0.385470     0.00000    1.000000
     31 Ar    c    0.126239    0.149847    0.333813     0.00000    1.000000
     32 Ar    c    0.395487    0.628270    0.651088     0.00000    1.000000
     33 Ar    c    0.576567    0.652987    0.209138     0.00000    1.000000
     34 Ar    c    0.942571    0.029297    0.552176     0.00000    1.000000
     35 Ar    c    0.812846    0.647862    0.792319     0.00000    1.000000
     36 Ar    c    0.193091    0.817687    0.014319     0.00000    1.000000
     37 Ar    c    0.354512    0.331788    0.104515     0.00000    1.000000
     38 Ar    c    0.105055    0.989048    0.297683     0.00000    1.000000
     39 Ar    c    0.562989    0.490474    0.477385     0.00000    1.000000
     40 Ar    c    0.390280    0.687110    0.815062     0.00000    1.000000
     41 Ar    c    0.682106    0.767631    0.636751     0.00000    1.000000
     42 Ar    c    0.965388    0.377129    0.305644     0.00000    1.000000
     43 Ar    c    0.258182    0.899585    0.510904     0.00000    1.000000
     44 Ar    c    0.534344    0.535717    0.635755     0.00000    1.000000
     45 Ar    c    0.961781    0.933992    0.831376     0.00000    1.000000
     46 Ar    c    0.252232    0.182899    0.633316     0.00000    1.000000
     47 Ar    c    0.446795    0.111637    0.051183     0.00000    1.000000
     48 Ar    c    0.428311    0.460261    0.368806     0.00000    1.000000
     49 Ar    c    0.418244    0.562053    0.233605     0.00000    1.000000
     50 Ar    c    0.840159    0.890188    0.527428     0.00000    1.000000
     51 Ar    c    0.654727    0.624598    0.531700     0.00000    1.000000
     52 Ar    c    0.505681    0.805547    0.178151     0.00000    1.000000
     53 Ar    c    0.025033    0.210325    0.470012     0.00000    1.000000
     54 Ar    c    0.122766    0.072180    0.037809     0.00000    1.000000
     55 Ar    c    0.267947    0.680207    0.114213     0.00000    1.000000
     56 Ar    c    0.619455    0.936208    0.106645     0.00000    1.000000
     57 Ar    c    0.363899    0.220406    0.505872     0.00000    1.000000
     58 Ar    c    0.928961    0.627256    0.470231     0.00000    1.000000
     59 Ar    c    0.117632    0.965248    0.764228     0.00000    1.000000
     60 Ar    c    0.657232    0.747676    0.806627     0.00000    1.000000
[...]
    242 Ar    c    0.981549    0.345018    0.573211     0.00000    1.000000
    243 Ar    c    0.152349    0.126757    0.768073     0.00000    1.000000
    244 Ar    c    0.864689    0.954012    0.689405     0.00000    1.000000
    245 Ar    c    0.280734    0.384520    0.548397     0.00000    1.000000
    246 Ar    c    0.643175    0.128182    0.531477     0.00000    1.000000
    247 Ar    c    0.225723    0.861082    0.675636     0.00000    1.000000
    248 Ar    c    0.293504    0.172883    0.080046     0.00000    1.000000
    249 Ar    c    0.010391    0.756934    0.986376     0.00000    1.000000
    250 Ar    c    0.621335    0.313572    0.541494     0.00000    1.000000
    251 Ar    c    0.529341    0.211496    0.439593     0.00000    1.000000
    252 Ar    c    0.466214    0.471418    0.101119     0.00000    1.000000
    253 Ar    c    0.086977    0.762804    0.142293     0.00000    1.000000
    254 Ar    c    0.717021    0.864042    0.390249     0.00000    1.000000
    255 Ar    c    0.032033    0.112601    0.184133     0.00000    1.000000
    256 Ar    c    0.771019    0.244999    0.564665     0.00000    1.000000

  Brillouin zone sampling points :

  Point number          x          y          z            Weight
        1           0.000000   0.000000   0.000000         1.0000

*  General input information                                                   *

  Species output for all configurations :

  Species    Type    Atomic    Atomic    Charge       Radii (Angs)     Library
                     Number     Mass       (e)     Cova   Ionic  VDW   Symbol
    Ar       Core       18      39.95   0.000000   0.000  0.000  0.000

  Lattice summation method               =    Ewald          (3-D)
                                         =    Parry          (2-D)
                                         =    Saunders et al (1-D)
  Accuracy factor for lattice sums       =   12.000

  Time limit = Infinity

  Maximum range for interatomic potentials =    100000.000000 Angstroms

  General interatomic potentials :

Atom  Types   Potential         A         B         C         D     Cutoffs(Ang)
  1     2                                                            Min    Max
Ar   c Ar   c Lennard 12  6 0.995E+05  64.4      0.00      0.00     0.000  8.500

*  Output for configuration   1                                                *

  Components of energy :

  Interatomic potentials     =         -19.69423482 eV
  Monopole - monopole (real) =           0.00000000 eV
  Monopole - monopole (recip)=           0.00000000 eV
  Monopole - monopole (total)=           0.00000000 eV
  Total lattice energy       =         -19.69423482 eV
  Total lattice energy       =           -1900.1926 kJ/(mole unit cells)

  Elastic Constant Matrix: (Units=GPa)

  Indices      1         2         3         4         5         6
       1      3.3862    2.2967    1.9120   -0.1483    0.0528   -0.0623
       2      2.2967    3.7132    1.8664   -0.0649   -0.0715    0.2468
       3      1.9120    1.8664    3.4888    0.2074    0.0732    0.0729
       4     -0.1483   -0.0649    0.2074    0.5493   -0.0062   -0.0765
       5      0.0528   -0.0715    0.0732   -0.0062    0.6989    0.0830
       6     -0.0623    0.2468    0.0729   -0.0765    0.0830    0.6703

  Elastic Compliance Matrix: (Units=1/GPa)

  Indices      1         2         3         4         5         6
       1    0.628619 -0.300204 -0.201288  0.241064 -0.082083  0.228510
       2   -0.300204  0.530955 -0.116996 -0.004151  0.115988 -0.225497
       3   -0.201288 -0.116996  0.476711 -0.255806 -0.042875 -0.051343
       4    0.241064 -0.004151 -0.255806  2.021062 -0.007421  0.283261
       5   -0.082083  0.115988 -0.042875 -0.007421  1.480589 -0.229905
       6    0.228510 -0.225497 -0.051343  0.283261 -0.229905  1.662596

  Mechanical properties :

  Convention :                    Reuss         Voigt         Hill
  Bulk  Modulus (GPa)     =       2.50432       2.52649       2.51540
  Shear Modulus (GPa)     =       0.61195       0.68457       0.64826
  Velocity S-wave (km/s)  =       0.59775       0.63222       0.61523
  Velocity P-wave (km/s)  =       1.39235       1.41708       1.40477
  Compressibility (1/GPa) =    0.39931061
  Stress axis :                     x             y             z
  Youngs Moduli (GPa)     =       1.59079       1.88340       2.09771
  Poissons Ratio (x)      =                     0.56540       0.42224
  Poissons Ratio (y)      =       0.47756                     0.24542
  Poissons Ratio (z)      =       0.32021       0.22035

  Piezoelectric Strain Matrix: (Units=C/m**2)

  Indices      1         2         3         4         5         6
       x     0.00000   0.00000   0.00000   0.00000   0.00000   0.00000
       y     0.00000   0.00000   0.00000   0.00000   0.00000   0.00000
       z     0.00000   0.00000   0.00000   0.00000   0.00000   0.00000

  Piezoelectric Stress Matrix: (Units=10**-11 C/N)

  Indices      1         2         3         4         5         6
       x     0.00000   0.00000   0.00000   0.00000   0.00000   0.00000
       y     0.00000   0.00000   0.00000   0.00000   0.00000   0.00000
       z     0.00000   0.00000   0.00000   0.00000   0.00000   0.00000

  Static dielectric constant tensor :

              x         y         z
       x     1.00000   0.00000   0.00000
       y     0.00000   1.00000   0.00000
       z     0.00000   0.00000   1.00000

  Static refractive indices :

    1 =    1.00000      2 =    1.00000      3 =    1.00000

  Phonon Calculation :

  Number of k points for this configuration =        1

  K point      1 =   0.000000  0.000000  0.000000  Weight =    1.000

 Frequencies (cm-1) :

    0.00    0.00    0.00    3.25    5.19    5.46    5.71    6.02    6.41
    6.80    7.32    7.67    7.98    8.15    8.22    8.60    8.87    9.09
    9.23    9.36    9.45    9.67    9.89   10.01   10.19   10.39   10.47
   10.57   10.89   11.22   11.36   11.38   11.57   11.70   11.80   11.90
   11.97   12.10   12.30   12.50   12.68   12.75   12.89   13.05   13.10
   13.18   13.39   13.61   13.63   13.79   13.84   13.93   14.15   14.22
   14.29   14.40   14.57   14.61   14.79   14.85   14.94   15.06   15.14
   15.34   15.40   15.54   15.61   15.89   15.90   16.10   16.23   16.34
   16.44   16.48   16.57   16.82   17.00   17.04   17.08   17.15   17.28
   17.38   17.41   17.59   17.65   17.71   17.81   17.85   17.97   18.10
   18.21   18.27   18.39   18.42   18.60   18.66   18.74   18.93   19.06
   19.13   19.17   19.28   19.31   19.41   19.49   19.57   19.71   19.73
   19.79   19.94   20.00   20.10   20.20   20.22   20.36   20.52   20.58
   20.62   20.65   20.77   20.85   20.95   21.06   21.13   21.20   21.25
   21.32   21.52   21.58   21.64   21.66   21.80   21.87   21.97   22.08
   22.09   22.16   22.23   22.40   22.48   22.58   22.61   22.67   22.72
   22.86   22.90   23.05   23.10   23.15   23.16   23.28   23.38   23.44
   23.55   23.60   23.64   23.64   23.76   23.88   23.99   24.02   24.09
   24.18   24.29   24.33   24.42   24.46   24.58   24.68   24.72   24.78
   24.90   24.98   25.03   25.04   25.08   25.19   25.31   25.38   25.42
   25.49   25.53   25.63   25.70   25.84   25.97   26.00   26.20   26.21
   26.22   26.29   26.31   26.42   26.46   26.54   26.60   26.64   26.70
   26.87   26.91   26.99   27.04   27.12   27.21   27.23   27.35   27.44
   27.51   27.61   27.66   27.76   27.84   27.89   27.95   28.00   28.08
   28.14   28.19   28.20   28.29   28.38   28.46   28.55   28.59   28.63
   28.80   28.89   28.93   28.94   29.02   29.09   29.20   29.21   29.27
   29.37   29.40   29.57   29.66   29.73   29.77   29.90   29.92   29.97
   30.02   30.19   30.28   30.35   30.43   30.45   30.52   30.55   30.63
   30.72   30.81   30.90   30.90   30.99   31.06   31.09   31.16   31.26
   31.32   31.38   31.45   31.55   31.61   31.68   31.78   31.88   31.89
   31.98   32.00   32.10   32.14   32.21   32.27   32.44   32.48   32.51
   32.60   32.65   32.78   32.86   33.00   33.02   33.05   33.07   33.12
   33.27   33.33   33.41   33.47   33.58   33.62   33.67   33.80   33.83
   33.86   33.95   33.95   34.06   34.08   34.20   34.30   34.35   34.44
   34.50   34.58   34.61   34.74   34.76   34.85   34.89   34.97   35.05
   35.08   35.13   35.20   35.23   35.27   35.37   35.49   35.51   35.55
   35.70   35.74   35.84   35.85   35.90   36.00   36.02   36.15   36.17
   36.27   36.36   36.42   36.47   36.51   36.61   36.64   36.74   36.78
   36.92   36.98   37.00   37.08   37.12   37.17   37.25   37.32   37.44
   37.54   37.62   37.70   37.77   37.86   37.98   38.04   38.10   38.18
   38.22   38.30   38.42   38.44   38.52   38.54   38.61   38.69   38.73
   38.77   38.90   38.91   38.98   39.12   39.13   39.24   39.26   39.31
   39.44   39.51   39.68   39.79   39.87   39.90   39.94   40.06   40.08
   40.16   40.19   40.26   40.32   40.38   40.47   40.47   40.62   40.68
   40.80   40.84   40.87   41.09   41.16   41.21   41.24   41.30   41.32
   41.39   41.48   41.56   41.65   41.78   41.80   41.84   41.93   41.97
   42.02   42.08   42.22   42.26   42.35   42.41   42.44   42.52   42.62
   42.71   42.75   42.85   42.90   42.95   42.95   43.05   43.09   43.12
   43.20   43.33   43.39   43.47   43.51   43.67   43.78   43.83   43.92
   43.97   44.04   44.10   44.25   44.27   44.37   44.42   44.49   44.60
   44.73   44.76   44.85   44.89   44.94   45.00   45.04   45.25   45.34
   45.37   45.45   45.48   45.51   45.64   45.66   45.74   45.90   45.93
   45.99   46.08   46.17   46.23   46.28   46.36   46.45   46.58   46.62
   46.66   46.72   46.77   46.94   46.95   47.01   47.10   47.19   47.32
   47.33   47.40   47.48   47.56   47.73   47.75   47.82   47.86   47.99
   48.03   48.10   48.16   48.36   48.37   48.45   48.49   48.53   48.71
   48.84   48.92   48.97   49.01   49.10   49.18   49.19   49.35   49.37
   49.48   49.55   49.67   49.69   49.71   49.83   49.92   50.01   50.06
   50.13   50.26   50.28   50.37   50.42   50.53   50.56   50.73   50.81
   50.87   50.99   51.00   51.06   51.15   51.20   51.36   51.46   51.49
[...]
   60.12   60.22   60.31   60.45   60.50   60.53   60.70   60.74   60.79
   60.90   61.03   61.13   61.21   61.26   61.29   61.41   61.48   61.56
   61.69   61.75   61.85   62.04   62.07   62.16   62.20   62.37   62.54
   62.58   62.70   62.82   62.87   63.01   63.11   63.21   63.28   63.39
   63.47   63.55   63.63   63.78   63.86   63.95   64.01   64.10   64.21
   64.27   64.37   64.47   64.49   64.65   64.68   64.85   65.06   65.13
   65.27   65.41   65.50   65.59   65.71   65.89   66.04   66.18   66.33
   66.39   66.47   66.57   66.73   66.81   66.96   67.02   67.25   67.40
   67.51   67.74   67.81   67.89   67.97   68.13   68.31   68.43   68.83
   68.93   68.99   69.21   69.28   69.45   69.57   69.82   69.85   70.03
   70.11   70.20   70.39   70.53   70.61   70.88   71.10   71.31   71.68
   71.80   71.97   72.27   72.79   72.86   73.37   73.41   73.68   73.82
   74.03   74.15   74.30   74.64   75.29   75.42   76.21   76.34   76.59
   76.85   76.91   77.44   77.67   78.03   78.30   78.51   79.47   81.23
   82.44   82.85   86.35

  Thermal conductivity:

  Lorentzian broadening factor =     0.1126 cm-1

 Mode    : Frequency (cm-1)         Thermal conductivity (cm**2/s)
     4        3.2488                  0.00000000000000
     5        5.1862                  0.00076446804943
     6        5.4569                  0.00095227174719
     7        5.7083                  0.00066425202375
     8        6.0151                  0.00040479428221
     9        6.4081                  0.00046664179167
    10        6.8003                  0.00050005379511
    11        7.3188                  0.00018257573307
    12        7.6710                  0.00037451784468
    13        7.9783                  0.00084726097343
    14        8.1475                  0.00102916714678
    15        8.2191                  0.00095285724352
    16        8.5986                  0.00072922370834
    17        8.8738                  0.00087216167026
    18        9.0923                  0.00159689321507
    19        9.2290                  0.00153716111784
    20        9.3613                  0.00122226294475
    21        9.4507                  0.00070026920734
    22        9.6690                  0.00109562361259
    23        9.8863                  0.00169583979234
    24       10.0113                  0.00161246420429
    25       10.1881                  0.00086661484484
    26       10.3873                  0.00117080251956
    27       10.4680                  0.00151230352221
    28       10.5745                  0.00103275400683
    29       10.8945                  0.00043469160859
    30       11.2211                  0.00082633984865
    31       11.3569                  0.00134812349817
    32       11.3839                  0.00072907235169
    33       11.5723                  0.00093649727397
    34       11.6977                  0.00132396345813
    35       11.7997                  0.00222309461507
    36       11.8976                  0.00202779699764
    37       11.9702                  0.00084915877217
    38       12.1049                  0.00088900157622
    39       12.2953                  0.00066859407565
    40       12.5022                  0.00092078601033
    41       12.6796                  0.00173256121064
    42       12.7482                  0.00174973155848
    43       12.8859                  0.00088529513120
    44       13.0523                  0.00110322228629
    45       13.0979                  0.00092106072516
    46       13.1829                  0.00105797193463
    47       13.3850                  0.00088233745604
    48       13.6068                  0.00278527605544
    49       13.6327                  0.00357665890575
    50       13.7874                  0.00128770752889
    51       13.8422                  0.00106021396690
    52       13.9318                  0.00095226905563
    53       14.1487                  0.00126364999627
    54       14.2196                  0.00186800724416
    55       14.2912                  0.00153428320321
    56       14.4047                  0.00120056317412
    57       14.5736                  0.00133260631701
    58       14.6063                  0.00137434218906
    59       14.7859                  0.00139422061173
    60       14.8498                  0.00198887153881
    61       14.9445                  0.00183556649984
    62       15.0550                  0.00149299121030
    63       15.1376                  0.00093232190326
[...]
   754       76.2103                  0.00019012237811
   755       76.3446                  0.00015798836238
   756       76.5906                  0.00005174395183
   757       76.8502                  0.00028550317842
   758       76.9126                  0.00027846001928
   759       77.4417                  0.00006378318808
   760       77.6652                  0.00002684714224
   761       78.0298                  0.00003844826778
   762       78.3023                  0.00002437000735
   763       78.5114                  0.00001853727621
   764       79.4656                  0.00000524178729
   765       81.2291                  0.00000851845965
   766       82.4449                  0.00000368450675
   767       82.8510                  0.00000819284501
   768       86.3543                  0.00000000000000
  Thermal conductivity =     0.127575 W/(m.K)

  Phonon properties (per mole of unit cells): Temperature =   1000.000 K
  Zero point energy            =        1.930227 eV
  Entropy                      =        0.261023 eV/K
                               =    25184.763956 J/(mol.K)
  Helmholtz free-energy        =     -214.772534 eV
                               =   -20722.264631 kJmol-1
  Free energy (equipartition)  =     -214.783765 eV
  - T*S       (equipartition)  =     -261.012151 eV
  Uvib        (equipartition)  =       65.922621 eV
  Mean kinetic energy          =       33.101801 eV
  Heat capacity - const volume =        0.065900 eV/K
                               =     6358.358063 J/(mol.K)

  Phonon density of states :

 Frequency (cm-1) Density of States
    0.00000 |                                                              0.000
    1.34929 |                                                              0.000
    2.69857 |**                                                            0.001
    4.04786 |**                                                            0.001
    5.39715 |***********                                                   0.005
    6.74644 |***********                                                   0.005
    8.09572 |*******************                                           0.009
    9.44501 |**********************                                        0.010
   10.79430 |****************************                                  0.013
   12.14358 |*************************                                     0.012
   13.49287 |**********************************                            0.016
   14.84216 |*******************************                               0.014
   16.19145 |*************************************                         0.017
   17.54073 |***************************************                       0.018
   18.89002 |************************************************              0.022
   20.23931 |******************************************                    0.020
   21.58859 |************************************************              0.022
   22.93788 |***************************************************           0.024
   24.28717 |******************************************************        0.025
   25.63646 |************************************************              0.022
   26.98574 |*********************************************************     0.026
   28.33503 |***************************************************           0.024
   29.68432 |******************************************************        0.025
   31.03361 |******************************************************        0.025
   32.38289 |******************************************************        0.025
   33.73218 |*********************************************************     0.026
   35.08147 |***********************************************************   0.027
   36.43075 |******************************************************        0.025
   37.78004 |******************************************************        0.025
   39.12933 |*********************************************************     0.026
   40.47862 |************************************************              0.022
   41.82790 |***********************************************************   0.027
   43.17719 |************************************************              0.022
   44.52648 |************************************************              0.022
   45.87576 |******************************************************        0.025
   47.22505 |***************************************************           0.024
   48.57434 |*********************************************                 0.021
   49.92363 |***************************************************           0.024
   51.27291 |*********************************************                 0.021
   52.62220 |******************************************                    0.020
   53.97149 |************************************************              0.022
   55.32077 |************************************************              0.022
   56.67006 |***************************************                       0.018
   58.01935 |***************************************                       0.018
   59.36864 |*********************************************                 0.021
   60.71792 |******************************************                    0.020
   62.06721 |***************************************                       0.018
   63.41650 |******************************************                    0.020
   64.76578 |****************************                                  0.013
   66.11507 |*******************************                               0.014
   67.46436 |**********************                                        0.010
   68.81365 |*******************************                               0.014
   70.16293 |*******************                                           0.009
   71.51222 |*****************                                             0.008
   72.86151 |*****************                                             0.008
   74.21079 |***********                                                   0.005
   75.56008 |***********                                                   0.005
   76.90937 |***********                                                   0.005
   78.25866 |********                                                      0.004
   79.60794 |                                                              0.000
   80.95723 |**                                                            0.001
   82.30652 |*****                                                         0.003
   83.65581 |                                                              0.000
   85.00509 |**                                                            0.001

  XYZ File written as gulp.xyz

  Time to end of properties =       5.9341 seconds

  Timing analysis for GULP :

  Task / Subroutine                                          Time (Seconds)
  Calculation of real space energy and derivatives                0.0990
  Calculation of phonons                                          5.5352
  Calculation of scattering                                       0.0000
  Disk read/write operations to scratch files                     0.0040

  Job Finished at 16:40.56 30th June       2013