  Job Started  at 15:26.17 30th October    2012

  Number of CPUs =     1

  Total number of configurations input =   1

*  Input for Configuration =   1                                               *

  Formula = Ar4

  Number of irreducible atoms/shells =       4

  Total number atoms/shells =       4

  Dimensionality = 3               :  Bulk

  Cartesian lattice vectors (Angstroms) :

        5.268652    0.000000    0.000000
        0.000000    5.268652    0.000000
        0.000000    0.000000    5.268652

  Cell parameters (Angstroms/Degrees):

  a =       5.2687    alpha =  90.0000
  b =       5.2687    beta  =  90.0000
  c =       5.2687    gamma =  90.0000

  Initial cell volume =         146.250898 Angs**3

  Temperature of configuration =  0.000     K

  Pressure of configuration =         0.000 GPa

  Fractional coordinates of asymmetric unit :

   No.  Atomic       x           y          z         Charge      Occupancy
        Label      (Frac)      (Frac)     (Frac)        (e)         (Frac)
      1 Ar1   c    0.000000    0.000000    0.000000     0.00000    1.000000
      2 Ar1   c    0.500000    0.500000    0.000000     0.00000    1.000000
      3 Ar1   c    0.500000    0.000000    0.500000     0.00000    1.000000
      4 Ar1   c    0.000000    0.500000    0.500000     0.00000    1.000000

  Brillouin zone sampling points :

  Point number          x          y          z            Weight
        1           0.000000   0.000000   0.000100         1.0000

*  General input information                                                   *

  Species output for all configurations :

  Species    Type    Atomic    Atomic    Charge       Radii (Angs)     Library
                     Number     Mass       (e)     Cova   Ionic  VDW   Symbol
    Ar1      Core       18      39.94   0.000000   0.000  0.000  0.000

  Lattice summation method               =    Ewald          (3-D)
                                         =    Parry          (2-D)
                                         =    Saunders et al (1-D)
  Accuracy factor for lattice sums       =   12.000

  Time limit = Infinity

  Maximum range for interatomic potentials =    100000.000000 Angstroms

  General interatomic potentials :

Atom  Types   Potential         A         B         C         D     Cutoffs(Ang)
  1     2                                                            Min    Max
Ar1  c Ar1  c Lennard 12  6 0.995E+05  64.4      0.00      0.00     0.000  8.500

*  Output for configuration   1                                                *

  Components of energy :

  Interatomic potentials     =          -0.33769963 eV
  Monopole - monopole (real) =           0.00000000 eV
  Monopole - monopole (recip)=           0.00000000 eV
  Monopole - monopole (total)=           0.00000000 eV
  Total lattice energy       =          -0.33769963 eV
  Total lattice energy       =             -32.5829 kJ/(mole unit cells)

  Elastic Constant Matrix: (Units=GPa)

  Indices      1         2         3         4         5         6
       1      4.1518    2.3636    2.3636   -0.0000   -0.0000   -0.0000
       2      2.3636    4.1518    2.3636    0.0000   -0.0000    0.0000
       3      2.3636    2.3636    4.1518    0.0000   -0.0000    0.0000
       4     -0.0000    0.0000    0.0000    2.3636    0.0000    0.0000
       5     -0.0000   -0.0000   -0.0000    0.0000    2.3636   -0.0000
       6     -0.0000    0.0000    0.0000    0.0000   -0.0000    2.3636

  Elastic Compliance Matrix: (Units=1/GPa)

  Indices      1         2         3         4         5         6
       1    0.410358 -0.148865 -0.148865  0.000000  0.000000  0.000000
       2   -0.148865  0.410358 -0.148865 -0.000000 -0.000000 -0.000000
       3   -0.148865 -0.148865  0.410358  0.000000 -0.000000 -0.000000
       4    0.000000 -0.000000  0.000000  0.423091  0.000000  0.000000
       5    0.000000 -0.000000 -0.000000  0.000000  0.423091  0.000000
       6    0.000000 -0.000000 -0.000000  0.000000  0.000000  0.423091

  Mechanical properties :

  Convention :                    Reuss         Voigt         Hill
  Bulk  Modulus (GPa)     =       2.95962       2.95962       2.95962
  Shear Modulus (GPa)     =       1.42606       1.77577       1.60092
  Velocity S-wave (km/s)  =       0.88663       0.98939       0.93942
  Velocity P-wave (km/s)  =       1.63696       1.71367       1.67576
  Compressibility (1/GPa) =    0.33788120
  Stress axis :                     x             y             z
  Youngs Moduli (GPa)     =       2.43690       2.43690       2.43690
  Poissons Ratio (x)      =                     0.36277       0.36277
  Poissons Ratio (y)      =       0.36277                     0.36277
  Poissons Ratio (z)      =       0.36277       0.36277

  Piezoelectric Strain Matrix: (Units=C/m**2)

  Indices      1         2         3         4         5         6
       x    -0.00000  -0.00000  -0.00000  -0.00000  -0.00000  -0.00000
       y    -0.00000  -0.00000  -0.00000  -0.00000  -0.00000  -0.00000
       z    -0.00000  -0.00000  -0.00000  -0.00000  -0.00000  -0.00000

  Piezoelectric Stress Matrix: (Units=10**-11 C/N)

  Indices      1         2         3         4         5         6
       x     0.00000   0.00000   0.00000   0.00000   0.00000   0.00000
       y     0.00000   0.00000   0.00000   0.00000   0.00000   0.00000
       z     0.00000   0.00000   0.00000   0.00000   0.00000   0.00000

  Static dielectric constant tensor :

              x         y         z
       x     1.00000   0.00000   0.00000
       y     0.00000   1.00000   0.00000
       z     0.00000   0.00000   1.00000

  Static refractive indices :

    1 =    1.00000      2 =    1.00000      3 =    1.00000

  Phonon Calculation :

  Number of k points for this configuration =        1

  K point      1 =   0.000000  0.000000  0.000100  Weight =    1.000

 Frequencies (cm-1) and Eigenvectors :

 Frequency       0.0138              0.0138              0.0176
 IR Intensity    0.0000              0.0000              0.0000
    in X         0.0000              0.0000              0.0000
    in Y         0.0000              0.0000              0.0000
    in Z         0.0000              0.0000              0.0000
 Raman Intsty    0.0000              0.0000              0.0000

                Real    Imaginary   Real    Imaginary   Real    Imaginary

     1 x       0.464984 -0.000005 -0.183821  0.000000 -0.000000  0.000000
     1 y       0.183821 -0.000001  0.464984  0.000000  0.000000 -0.000000
     1 z       0.000000  0.000000  0.000000  0.000000 -0.500000 -0.000000
     2 x       0.464984 -0.000005 -0.183821  0.000000 -0.000000 -0.000000
     2 y       0.183821 -0.000001  0.464984  0.000000  0.000000 -0.000000
     2 z       0.000000  0.000000  0.000000 -0.000000 -0.500000 -0.000000
     3 x       0.464984 -0.000005 -0.183821  0.000000 -0.000000 -0.000000
     3 y       0.183821 -0.000001  0.464984  0.000000  0.000000  0.000000
     3 z       0.000000  0.000000  0.000000 -0.000000 -0.500000 -0.000000
     4 x       0.464984 -0.000005 -0.183821  0.000000 -0.000000  0.000000
     4 y       0.183821 -0.000001  0.464984  0.000000  0.000000  0.000000
     4 z       0.000000 -0.000000  0.000000  0.000000 -0.500000  0.000000

[...]

 Frequency      66.6599             66.6599             66.6599
 IR Intensity    0.0000              0.0000              0.0000
    in X         0.0000              0.0000              0.0000
    in Y         0.0000              0.0000              0.0000
    in Z         0.0000              0.0000              0.0000
 Raman Intsty    0.0000              0.0000              0.0000

                Real    Imaginary   Real    Imaginary   Real    Imaginary

     1 x      -0.000000  0.000000  0.254161 -0.000000 -0.430584  0.000000
     1 y       0.000000 -0.000000  0.430584 -0.000000  0.254161  0.000000
     1 z      -0.500000 -0.000000  0.000000  0.000000  0.000000  0.000000
     2 x       0.000000 -0.000000 -0.254161  0.000000  0.430584 -0.000000
     2 y      -0.000000  0.000000 -0.430584  0.000000 -0.254161 -0.000000
     2 z      -0.500000 -0.000000  0.000000 -0.000000  0.000000  0.000000
     3 x       0.000000  0.000000 -0.254161  0.000000  0.430584 -0.000000
     3 y       0.000000  0.000000  0.430584 -0.000000  0.254161  0.000000
     3 z       0.500000 -0.000000 -0.000000 -0.000000 -0.000000 -0.000000
     4 x      -0.000000 -0.000000  0.254161 -0.000000 -0.430584  0.000000
     4 y      -0.000000 -0.000000 -0.430584  0.000000 -0.254161 -0.000000
     4 z       0.500000  0.000000 -0.000000  0.000000 -0.000000  0.000000

  Phonon properties (per mole of unit cells): Temperature =      0.000 K
  Zero point energy            =        0.029360 eV

  Phonon density of states :

 Frequency (cm-1) Density of States
    0.00000 |******************************                                0.250
    1.04156 |                                                              0.000
    2.08313 |                                                              0.000
    3.12469 |                                                              0.000
    4.16625 |                                                              0.000
    5.20781 |                                                              0.000
    6.24938 |                                                              0.000
    7.29094 |                                                              0.000
    8.33250 |                                                              0.000
    9.37406 |                                                              0.000
   10.41563 |                                                              0.000
   11.45719 |                                                              0.000
   12.49875 |                                                              0.000
   13.54031 |                                                              0.000
   14.58188 |                                                              0.000
   15.62344 |                                                              0.000
   16.66500 |                                                              0.000
   17.70657 |                                                              0.000
   18.74813 |                                                              0.000
   19.78969 |                                                              0.000
   20.83125 |                                                              0.000
   21.87282 |                                                              0.000
   22.91438 |                                                              0.000
   23.95594 |                                                              0.000
   24.99750 |                                                              0.000
   26.03907 |                                                              0.000
   27.08063 |                                                              0.000
   28.12219 |                                                              0.000
   29.16376 |                                                              0.000
   30.20532 |                                                              0.000
   31.24688 |                                                              0.000
   32.28844 |                                                              0.000
   33.33001 |                                                              0.000
   34.37157 |                                                              0.000
   35.41313 |                                                              0.000
   36.45469 |                                                              0.000
   37.49626 |                                                              0.000
   38.53782 |                                                              0.000
   39.57938 |                                                              0.000
   40.62094 |                                                              0.000
   41.66251 |                                                              0.000
   42.70407 |                                                              0.000
   43.74563 |                                                              0.000
   44.78720 |************************************************************  0.500
   45.82876 |                                                              0.000
   46.87032 |                                                              0.000
   47.91188 |                                                              0.000
   48.95345 |                                                              0.000
   49.99501 |                                                              0.000
   51.03657 |                                                              0.000
   52.07813 |                                                              0.000
   53.11970 |                                                              0.000
   54.16126 |                                                              0.000
   55.20282 |                                                              0.000
   56.24438 |                                                              0.000
   57.28595 |                                                              0.000
   58.32751 |                                                              0.000
   59.36907 |                                                              0.000
   60.41064 |                                                              0.000
   61.45220 |                                                              0.000
   62.49376 |                                                              0.000
   63.53532 |                                                              0.000
   64.57689 |                                                              0.000
   65.61845 |******************************                                0.250

  Time to end of properties =       0.0120 seconds

  Timing analysis for GULP :

  Task / Subroutine                                          Time (Seconds)

  Job Finished at 15:26.17 30th October    2012